c Random Network
p max    10      20
n         1  s
n        10  t
a      10       9      36
a       1       3      20
a       5       2       3
a       3       7      15
a       4       9      30
a       5       4      43
a       1       2      35
a       2       4       7
a       3       8       3
a       2       1      36
a       7       1       9
a       4      10       8
a       5       9      46
a       3       2      43
a       1       4       4
a       9       5      32
a       4       2      44
a       2       7      24
a       8      10      32
a       1       8      29
